c *********************************
c * Circuit generated by BenCGen
c *
c * Parity_109
c *
c * Ports with 1 gate(s): 1
c * Ports with 2 gate(s): 109
c * Total gates: 110
c *********************************
p cnf 219 437
1 112 0
-1 -112 0
1 -111 0
112 -111 0
-1 -112 111 0
1 2 -113 0
-1 2 113 0
1 -2 113 0
-1 -2 -113 0
3 4 -114 0
-3 4 114 0
3 -4 114 0
-3 -4 -114 0
5 6 -115 0
-5 6 115 0
5 -6 115 0
-5 -6 -115 0
7 8 -116 0
-7 8 116 0
7 -8 116 0
-7 -8 -116 0
9 10 -117 0
-9 10 117 0
9 -10 117 0
-9 -10 -117 0
11 12 -118 0
-11 12 118 0
11 -12 118 0
-11 -12 -118 0
13 14 -119 0
-13 14 119 0
13 -14 119 0
-13 -14 -119 0
15 16 -120 0
-15 16 120 0
15 -16 120 0
-15 -16 -120 0
17 18 -121 0
-17 18 121 0
17 -18 121 0
-17 -18 -121 0
19 20 -122 0
-19 20 122 0
19 -20 122 0
-19 -20 -122 0
21 22 -123 0
-21 22 123 0
21 -22 123 0
-21 -22 -123 0
23 24 -124 0
-23 24 124 0
23 -24 124 0
-23 -24 -124 0
25 26 -125 0
-25 26 125 0
25 -26 125 0
-25 -26 -125 0
27 28 -126 0
-27 28 126 0
27 -28 126 0
-27 -28 -126 0
29 30 -127 0
-29 30 127 0
29 -30 127 0
-29 -30 -127 0
31 32 -128 0
-31 32 128 0
31 -32 128 0
-31 -32 -128 0
33 34 -129 0
-33 34 129 0
33 -34 129 0
-33 -34 -129 0
35 36 -130 0
-35 36 130 0
35 -36 130 0
-35 -36 -130 0
37 38 -131 0
-37 38 131 0
37 -38 131 0
-37 -38 -131 0
39 40 -132 0
-39 40 132 0
39 -40 132 0
-39 -40 -132 0
41 42 -133 0
-41 42 133 0
41 -42 133 0
-41 -42 -133 0
43 44 -134 0
-43 44 134 0
43 -44 134 0
-43 -44 -134 0
45 46 -135 0
-45 46 135 0
45 -46 135 0
-45 -46 -135 0
47 48 -136 0
-47 48 136 0
47 -48 136 0
-47 -48 -136 0
49 50 -137 0
-49 50 137 0
49 -50 137 0
-49 -50 -137 0
51 52 -138 0
-51 52 138 0
51 -52 138 0
-51 -52 -138 0
53 54 -139 0
-53 54 139 0
53 -54 139 0
-53 -54 -139 0
55 56 -140 0
-55 56 140 0
55 -56 140 0
-55 -56 -140 0
57 58 -141 0
-57 58 141 0
57 -58 141 0
-57 -58 -141 0
59 60 -142 0
-59 60 142 0
59 -60 142 0
-59 -60 -142 0
61 62 -143 0
-61 62 143 0
61 -62 143 0
-61 -62 -143 0
63 64 -144 0
-63 64 144 0
63 -64 144 0
-63 -64 -144 0
65 66 -145 0
-65 66 145 0
65 -66 145 0
-65 -66 -145 0
67 68 -146 0
-67 68 146 0
67 -68 146 0
-67 -68 -146 0
69 70 -147 0
-69 70 147 0
69 -70 147 0
-69 -70 -147 0
71 72 -148 0
-71 72 148 0
71 -72 148 0
-71 -72 -148 0
73 74 -149 0
-73 74 149 0
73 -74 149 0
-73 -74 -149 0
75 76 -150 0
-75 76 150 0
75 -76 150 0
-75 -76 -150 0
77 78 -151 0
-77 78 151 0
77 -78 151 0
-77 -78 -151 0
79 80 -152 0
-79 80 152 0
79 -80 152 0
-79 -80 -152 0
81 82 -153 0
-81 82 153 0
81 -82 153 0
-81 -82 -153 0
83 84 -154 0
-83 84 154 0
83 -84 154 0
-83 -84 -154 0
85 86 -155 0
-85 86 155 0
85 -86 155 0
-85 -86 -155 0
87 88 -156 0
-87 88 156 0
87 -88 156 0
-87 -88 -156 0
89 90 -157 0
-89 90 157 0
89 -90 157 0
-89 -90 -157 0
91 92 -158 0
-91 92 158 0
91 -92 158 0
-91 -92 -158 0
93 94 -159 0
-93 94 159 0
93 -94 159 0
-93 -94 -159 0
95 96 -160 0
-95 96 160 0
95 -96 160 0
-95 -96 -160 0
97 98 -161 0
-97 98 161 0
97 -98 161 0
-97 -98 -161 0
99 100 -162 0
-99 100 162 0
99 -100 162 0
-99 -100 -162 0
101 102 -163 0
-101 102 163 0
101 -102 163 0
-101 -102 -163 0
103 104 -164 0
-103 104 164 0
103 -104 164 0
-103 -104 -164 0
105 106 -165 0
-105 106 165 0
105 -106 165 0
-105 -106 -165 0
107 108 -166 0
-107 108 166 0
107 -108 166 0
-107 -108 -166 0
113 114 -167 0
-113 114 167 0
113 -114 167 0
-113 -114 -167 0
115 116 -168 0
-115 116 168 0
115 -116 168 0
-115 -116 -168 0
117 118 -169 0
-117 118 169 0
117 -118 169 0
-117 -118 -169 0
119 120 -170 0
-119 120 170 0
119 -120 170 0
-119 -120 -170 0
121 122 -171 0
-121 122 171 0
121 -122 171 0
-121 -122 -171 0
123 124 -172 0
-123 124 172 0
123 -124 172 0
-123 -124 -172 0
125 126 -173 0
-125 126 173 0
125 -126 173 0
-125 -126 -173 0
127 128 -174 0
-127 128 174 0
127 -128 174 0
-127 -128 -174 0
129 130 -175 0
-129 130 175 0
129 -130 175 0
-129 -130 -175 0
131 132 -176 0
-131 132 176 0
131 -132 176 0
-131 -132 -176 0
133 134 -177 0
-133 134 177 0
133 -134 177 0
-133 -134 -177 0
135 136 -178 0
-135 136 178 0
135 -136 178 0
-135 -136 -178 0
137 138 -179 0
-137 138 179 0
137 -138 179 0
-137 -138 -179 0
139 140 -180 0
-139 140 180 0
139 -140 180 0
-139 -140 -180 0
141 142 -181 0
-141 142 181 0
141 -142 181 0
-141 -142 -181 0
143 144 -182 0
-143 144 182 0
143 -144 182 0
-143 -144 -182 0
145 146 -183 0
-145 146 183 0
145 -146 183 0
-145 -146 -183 0
147 148 -184 0
-147 148 184 0
147 -148 184 0
-147 -148 -184 0
149 150 -185 0
-149 150 185 0
149 -150 185 0
-149 -150 -185 0
151 152 -186 0
-151 152 186 0
151 -152 186 0
-151 -152 -186 0
153 154 -187 0
-153 154 187 0
153 -154 187 0
-153 -154 -187 0
155 156 -188 0
-155 156 188 0
155 -156 188 0
-155 -156 -188 0
157 158 -189 0
-157 158 189 0
157 -158 189 0
-157 -158 -189 0
159 160 -190 0
-159 160 190 0
159 -160 190 0
-159 -160 -190 0
161 162 -191 0
-161 162 191 0
161 -162 191 0
-161 -162 -191 0
163 164 -192 0
-163 164 192 0
163 -164 192 0
-163 -164 -192 0
165 166 -193 0
-165 166 193 0
165 -166 193 0
-165 -166 -193 0
167 168 -194 0
-167 168 194 0
167 -168 194 0
-167 -168 -194 0
169 170 -195 0
-169 170 195 0
169 -170 195 0
-169 -170 -195 0
171 172 -196 0
-171 172 196 0
171 -172 196 0
-171 -172 -196 0
173 174 -197 0
-173 174 197 0
173 -174 197 0
-173 -174 -197 0
175 176 -198 0
-175 176 198 0
175 -176 198 0
-175 -176 -198 0
177 178 -199 0
-177 178 199 0
177 -178 199 0
-177 -178 -199 0
179 180 -200 0
-179 180 200 0
179 -180 200 0
-179 -180 -200 0
181 182 -201 0
-181 182 201 0
181 -182 201 0
-181 -182 -201 0
183 184 -202 0
-183 184 202 0
183 -184 202 0
-183 -184 -202 0
185 186 -203 0
-185 186 203 0
185 -186 203 0
-185 -186 -203 0
187 188 -204 0
-187 188 204 0
187 -188 204 0
-187 -188 -204 0
189 190 -205 0
-189 190 205 0
189 -190 205 0
-189 -190 -205 0
191 192 -206 0
-191 192 206 0
191 -192 206 0
-191 -192 -206 0
193 109 -207 0
-193 109 207 0
193 -109 207 0
-193 -109 -207 0
194 195 -208 0
-194 195 208 0
194 -195 208 0
-194 -195 -208 0
196 197 -209 0
-196 197 209 0
196 -197 209 0
-196 -197 -209 0
198 199 -210 0
-198 199 210 0
198 -199 210 0
-198 -199 -210 0
200 201 -211 0
-200 201 211 0
200 -201 211 0
-200 -201 -211 0
202 203 -212 0
-202 203 212 0
202 -203 212 0
-202 -203 -212 0
204 205 -213 0
-204 205 213 0
204 -205 213 0
-204 -205 -213 0
206 207 -214 0
-206 207 214 0
206 -207 214 0
-206 -207 -214 0
208 209 -215 0
-208 209 215 0
208 -209 215 0
-208 -209 -215 0
210 211 -216 0
-210 211 216 0
210 -211 216 0
-210 -211 -216 0
212 213 -217 0
-212 213 217 0
212 -213 217 0
-212 -213 -217 0
215 216 -218 0
-215 216 218 0
215 -216 218 0
-215 -216 -218 0
217 214 -219 0
-217 214 219 0
217 -214 219 0
-217 -214 -219 0
218 219 -110 0
-218 219 110 0
218 -219 110 0
-218 -219 -110 0
